\ENCODING=ISO-8859-1
\Problem name: IloCplex

Minimize
 obj: 350 y(0)(0)#0 + 150 _est(0)(0)#1 + 350 y(0)(1)#2 + 150 _est(0)(1)#3
      + 350 y(0)(2)#4 + 150 _est(0)(2)#5 + 350 y(0)(3)#6 + 150 _est(0)(3)#7
      + 100 y(1)(0)#8 + 100 _est(1)(0)#9 + 100 y(1)(1)#10 + 100 _est(1)(1)#11
      + 100 y(1)(2)#12 + 100 _est(1)(2)#13 + 100 y(1)(3)#14 + 100 _est(1)(3)#15
      + 90 y(2)(0)#16 + 70 _est(2)(0)#17 + 90 y(2)(1)#18 + 70 _est(2)(1)#19
      + 90 y(2)(2)#20 + 70 _est(2)(2)#21 + 90 y(2)(3)#22 + 70 _est(2)(3)#23
      + x25#24
Subject To
 c1:  - 12 y(0)(0)#0 + x(0)(0)#25 <= 0
 c2:  - 24 y(1)(0)#8 + x(1)(0)#26 <= 0
 c3:  - 12 y(2)(0)#16 + x(2)(0)#27 <= 0
 c4:  - 14 y(0)(1)#2 + x(0)(1)#28 <= 0
 c5:  - 23 y(1)(1)#10 + x(1)(1)#29 <= 0
 c6:  - 14 y(2)(1)#18 + x(2)(1)#30 <= 0
 c7:  - 12 y(0)(2)#4 + x(0)(2)#31 <= 0
 c8:  - 17 y(1)(2)#12 + x(1)(2)#32 <= 0
 c9:  - 12 y(2)(2)#20 + x(2)(2)#33 <= 0
 c10: - 18 y(0)(3)#6 + x(0)(3)#34 <= 0
 c11: - 11 y(1)(3)#14 + x(1)(3)#35 <= 0
 c12: - 11 y(2)(3)#22 + x(2)(3)#36 <= 0
 c13: 40 y(0)(0)#0 + 40 y(1)(0)#8 + 40 y(2)(0)#16 + 20 x(0)(0)#25
      + 10 x(1)(0)#26 + 20 x(2)(0)#27 <= 280
 c14: 40 y(0)(1)#2 + 40 y(1)(1)#10 + 40 y(2)(1)#18 + 20 x(0)(1)#28
      + 10 x(1)(1)#29 + 20 x(2)(1)#30 <= 320
 c15: 40 y(0)(2)#4 + 40 y(1)(2)#12 + 40 y(2)(2)#20 + 20 x(0)(2)#31
      + 10 x(1)(2)#32 + 20 x(2)(2)#33 <= 280
 c16: 40 y(0)(3)#6 + 40 y(1)(3)#14 + 40 y(2)(3)#22 + 20 x(0)(3)#34
      + 10 x(1)(3)#35 + 20 x(2)(3)#36 <= 400
 c17: _est(0)(0)#1 - x(0)(0)#25  = -1
 c18: _est(1)(0)#9 - x(1)(0)#26  = -2
 c19: _est(2)(0)#17 - x(2)(0)#27  = -2
 c20: - _est(0)(0)#1 + _est(0)(1)#3 - x(0)(1)#28  = -10
 c21: - _est(1)(0)#9 + _est(1)(1)#11 - x(1)(1)#29  = -4
 c22: - _est(2)(0)#17 + _est(2)(1)#19 - x(2)(1)#30  = -4
 c23: - _est(0)(1)#3 + _est(0)(2)#5 - x(0)(2)#31  = -3
 c24: - _est(1)(1)#11 + _est(1)(2)#13 - x(1)(2)#32  = 0
 c25: - _est(2)(1)#19 + _est(2)(2)#21 - x(2)(2)#33  = 0
 c26: - _est(0)(2)#5 + _est(0)(3)#7 - x(0)(3)#34  = -10
 c27: - _est(1)(2)#13 + _est(1)(3)#15 - x(1)(3)#35  = -5
 c28: - _est(2)(2)#21 + _est(2)(3)#23 - x(2)(3)#36  = -5
Bounds
 0 <= y(0)(0)#0 <= 1
 0 <= _est(0)(0)#1 <= 1000000
 0 <= y(0)(1)#2 <= 1
 0 <= _est(0)(1)#3 <= 1000000
 0 <= y(0)(2)#4 <= 1
 0 <= _est(0)(2)#5 <= 1000000
 0 <= y(0)(3)#6 <= 1
 0 <= _est(0)(3)#7 <= 1000000
 0 <= y(1)(0)#8 <= 1
 0 <= _est(1)(0)#9 <= 1000000
 0 <= y(1)(1)#10 <= 1
 0 <= _est(1)(1)#11 <= 1000000
 0 <= y(1)(2)#12 <= 1
 0 <= _est(1)(2)#13 <= 1000000
 0 <= y(1)(3)#14 <= 1
 0 <= _est(1)(3)#15 <= 1000000
 0 <= y(2)(0)#16 <= 1
 0 <= _est(2)(0)#17 <= 1000000
 0 <= y(2)(1)#18 <= 1
 0 <= _est(2)(1)#19 <= 1000000
 0 <= y(2)(2)#20 <= 1
 0 <= _est(2)(2)#21 <= 1000000
 0 <= y(2)(3)#22 <= 1
 0 <= _est(2)(3)#23 <= 1000000
      x25#24 = 0
 0 <= x(0)(0)#25 <= 1000000
 0 <= x(1)(0)#26 <= 1000000
 0 <= x(2)(0)#27 <= 1000000
 0 <= x(0)(1)#28 <= 1000000
 0 <= x(1)(1)#29 <= 1000000
 0 <= x(2)(1)#30 <= 1000000
 0 <= x(0)(2)#31 <= 1000000
 0 <= x(1)(2)#32 <= 1000000
 0 <= x(2)(2)#33 <= 1000000
 0 <= x(0)(3)#34 <= 1000000
 0 <= x(1)(3)#35 <= 1000000
 0 <= x(2)(3)#36 <= 1000000
Binaries
 y(0)(0)#0  y(0)(1)#2  y(0)(2)#4  y(0)(3)#6  y(1)(0)#8  y(1)(1)#10  y(1)(2)#12 
 y(1)(3)#14  y(2)(0)#16  y(2)(1)#18  y(2)(2)#20  y(2)(3)#22 
End
